8	2	4	7	0	0	0	0	0	0	0	0	0	0	0	0	0	0	0	0	4
8	2	4	8	0	0	0	0	0	0	0	0	0	0	0	0	0	0	0	0	4
8	2	4	9	0	0	0	0	0	0	0	0	0	0	0	0	0	0	0	0	4
8	2	4	10	0	0	0	0	0	0	0	0	0	0	0	0	0	0	0	0	4
8	2	4	11	0	0	0	0	0	0	0	0	0	0	0	0	0	0	0	0	4
8	2	4	12	0	0	0	0	0	0	0	0	0	0	0	0	0	0	0	0	4
8	2	4	13	0	0	0	0	0	0	0	0	0	0	0	0	0	0	0	0	4
8	2	4	14	0	0	0	0	0	0	0	0	0	0	0	0	0	0	0	0	4
8	3	4	8	0	0	0	0	0	0	0	0	0	0	0	0	0	0	0	0	4
8	3	4	9	0	0	0	0	0	0	0	0	0	0	0	0	0	0	0	0	4
8	3	4	10	0	0	0	0	0	0	0	0	0	0	0	0	0	0	0	0	4
8	3	4	11	0	0	0	0	0	0	0	0	0	0	0	0	0	0	0	0	4
8	3	4	12	0	0	0	0	0	0	0	0	0	0	0	0	0	0	0	0	4
8	3	4	13	0	0	0	0	0	0	0	0	0	0	0	0	0	0	0	0	4
8	3	4	14	0	0	0	0	0	0	0	0	0	0	0	0	0	0	0	0	4
8	3	4	15	0	0	0	0	0	0	0	0	0	0	0	0	0	0	0	0	4
8	4	4	9	0	0	0	0	0	0	0	0	0	0	0	0	0	0	0	0	4
8	4	4	10	0	0	0	0	0	0	0	0	0	0	0	0	0	0	0	0	4
8	4	4	11	0	0	0	0	0	0	0	0	0	0	0	0	0	0	0	0	4
8	4	4	12	0	0	0	0	0	0	0	0	0	0	0	0	0	0	0	0	4
8	4	4	13	0	0	0	0	0	0	0	0	0	0	0	0	0	0	0	0	4
8	4	4	14	0	0	0	0	0	0	0	0	0	0	0	0	0	0	0	0	4
8	4	4	15	0	0	0	0	0	0	0	0	0	0	0	0	0	0	0	0	4
8	4	4	16	0	0	0	0	0	0	0	0	0	0	0	0	0	0	0	0	4
8	5	4	10	0	0	0	0	0	0	0	0	0	0	0	0	0	0	0	0	4
8	5	4	11	0	0	0	0	0	0	0	0	0	0	0	0	0	0	0	0	4
8	5	4	12	0	0	0	0	0	0	0	0	0	0	0	0	0	0	0	0	4
8	5	4	13	0	0	0	0	0	0	0	0	0	0	0	0	0	0	0	0	4
8	5	4	14	0	0	0	0	0	0	0	0	0	0	0	0	0	0	0	0	4
8	5	4	15	0	0	0	0	0	0	0	0	0	0	0	0	0	0	0	0	4
8	5	4	16	0	0	0	0	0	0	0	0	0	0	0	0	0	0	0	0	4
8	5	4	17	0	0	0	0	0	0	0	0	0	0	0	0	0	0	0	0	4
8	6	4	11	0	0	0	0	0	0	0	0	0	0	0	0	0	0	0	0	4
8	6	4	12	0	0	0	0	0	0	0	0	0	0	0	0	0	0	0	0	4
8	6	4	13	0	0	0	0	0	0	0	0	0	0	0	0	0	0	0	0	4
8	6	4	14	0	0	0	0	0	0	0	0	0	0	0	0	0	0	0	0	4
8	6	4	15	0	0	0	0	0	0	0	0	0	0	0	0	0	0	0	0	4
8	6	4	16	0	0	0	0	0	0	0	0	0	0	0	0	0	0	0	0	4
8	6	4	17	0	0	0	0	0	0	0	0	0	0	0	0	0	0	0	0	4
8	6	4	18	0	0	0	0	0	0	0	0	0	0	0	0	0	0	0	0	4
8	7	4	12	0	0	0	0	0	0	0	0	0	0	0	0	0	0	0	0	4
8	7	4	13	0	0	0	0	0	0	0	0	0	0	0	0	0	0	0	0	4
8	7	4	14	0	0	0	0	0	0	0	0	0	0	0	0	0	0	0	0	4
8	7	4	15	0	0	0	0	0	0	0	0	0	0	0	0	0	0	0	0	4
8	7	4	16	0	0	0	0	0	0	0	0	0	0	0	0	0	0	0	0	4
8	7	4	17	0	0	0	0	0	0	0	0	0	0	0	0	0	0	0	0	4
8	7	4	18	0	0	0	0	0	0	0	0	0	0	0	0	0	0	0	0	4
8	7	4	19	0	0	0	0	0	0	0	0	0	0	0	0	0	0	0	0	4
8	8	4	13	0	0	0	0	0	0	0	0	0	0	0	0	0	0	0	0	4
8	8	4	14	0	0	0	0	0	0	0	0	0	0	0	0	0	0	0	0	4
8	8	4	15	0	0	0	0	0	0	0	0	0	0	0	0	0	0	0	0	4
8	8	4	16	0	0	0	0	0	0	0	0	0	0	0	0	0	0	0	0	4
8	8	4	17	0	0	0	0	0	0	0	0	0	0	0	0	0	0	0	0	4
8	8	4	18	0	0	0	0	0	0	0	0	0	0	0	0	0	0	0	0	4
8	8	4	19	0	0	0	0	0	0	0	0	0	0	0	0	0	0	0	0	4
8	8	4	20	0	0	0	0	0	0	0	0	0	0	0	0	0	0	0	0	4
8	9	4	14	0	0	0	0	0	0	0	0	0	0	0	0	0	0	0	0	4
8	9	4	15	0	0	0	0	0	0	0	0	0	0	0	0	0	0	0	0	4
8	9	4	16	0	0	0	0	0	0	0	0	0	0	0	0	0	0	0	0	4
8	9	4	17	0	0	0	0	0	0	0	0	0	0	0	0	0	0	0	0	4
8	9	4	18	0	0	0	0	0	0	0	0	0	0	0	0	0	0	0	0	4
8	9	4	19	0	0	0	0	0	0	0	0	0	0	0	0	0	0	0	0	4
8	9	4	20	0	0	0	0	0	0	0	0	0	0	0	0	0	0	0	0	4
8	9	4	21	0	0	0	0	0	0	0	0	0	0	0	0	0	0	0	0	4
8	10	4	15	0	0	0	0	0	0	0	0	0	0	0	0	0	0	0	0	4
8	10	4	16	0	0	0	0	0	0	0	0	0	0	0	0	0	0	0	0	4
8	10	4	17	0	0	0	0	0	0	0	0	0	0	0	0	0	0	0	0	4
8	10	4	18	0	0	0	0	0	0	0	0	0	0	0	0	0	0	0	0	4
8	10	4	19	0	0	0	0	0	0	0	0	0	0	0	0	0	0	0	0	4
8	10	4	20	0	0	0	0	0	0	0	0	0	0	0	0	0	0	0	0	4
8	10	4	21	0	0	0	0	0	0	0	0	0	0	0	0	0	0	0	0	4
8	10	4	22	0	0	0	0	0	0	0	0	0	0	0	0	0	0	0	0	4
8	11	4	16	0	0	0	0	0	0	0	0	0	0	0	0	0	0	0	0	4
8	11	4	17	0	0	0	0	0	0	0	0	0	0	0	0	0	0	0	0	4
8	11	4	18	0	0	0	0	0	0	0	0	0	0	0	0	0	0	0	0	4
8	11	4	19	0	0	0	0	0	0	0	0	0	0	0	0	0	0	0	0	4
8	11	4	20	0	0	0	0	0	0	0	0	0	0	0	0	0	0	0	0	4
8	11	4	21	0	0	0	0	0	0	0	0	0	0	0	0	0	0	0	0	4
8	11	4	22	0	0	0	0	0	0	0	0	0	0	0	0	0	0	0	0	4
8	11	4	23	0	0	0	0	0	0	0	0	0	0	0	0	0	0	0	0	4
8	12	4	17	0	0	0	0	0	0	0	0	0	0	0	0	0	0	0	0	4
8	12	4	18	0	0	0	0	0	0	0	0	0	0	0	0	0	0	0	0	4
8	12	4	19	0	0	0	0	0	0	0	0	0	0	0	0	0	0	0	0	4
8	12	4	20	0	0	0	0	0	0	0	0	0	0	0	0	0	0	0	0	4
8	12	4	21	0	0	0	0	0	0	0	0	0	0	0	0	0	0	0	0	4
8	12	4	22	0	0	0	0	0	0	0	0	0	0	0	0	0	0	0	0	4
8	12	4	23	0	0	0	0	0	0	0	0	0	0	0	0	0	0	0	0	4
8	12	4	24	0	0	0	0	0	0	0	0	0	0	0	0	0	0	0	0	4
8	13	4	18	0	0	0	0	0	0	0	0	0	0	0	0	0	0	0	0	4
8	13	4	19	0	0	0	0	0	0	0	0	0	0	0	0	0	0	0	0	4
8	13	4	20	0	0	0	0	0	0	0	0	0	0	0	0	0	0	0	0	4
8	13	4	21	0	0	0	0	0	0	0	0	0	0	0	0	0	0	0	0	4
8	13	4	22	0	0	0	0	0	0	0	0	0	0	0	0	0	0	0	0	4
8	13	4	23	0	0	0	0	0	0	0	0	0	0	0	0	0	0	0	0	4
8	13	4	24	0	0	0	0	0	0	0	0	0	0	0	0	0	0	0	0	4
8	13	4	25	0	0	0	0	0	0	0	0	0	0	0	0	0	0	0	0	4
8	14	4	19	0	0	0	0	0	0	0	0	0	0	0	0	0	0	0	0	4
8	14	4	20	0	0	0	0	0	0	0	0	0	0	0	0	0	0	0	0	4
8	14	4	21	0	0	0	0	0	0	0	0	0	0	0	0	0	0	0	0	4
8	14	4	22	0	0	0	0	0	0	0	0	0	0	0	0	0	0	0	0	4
8	14	4	23	0	0	0	0	0	0	0	0	0	0	0	0	0	0	0	0	4
8	14	4	24	0	0	0	0	0	0	0	0	0	0	0	0	0	0	0	0	4
8	14	4	25	0	0	0	0	0	0	0	0	0	0	0	0	0	0	0	0	4
8	14	4	26	0	0	0	0	0	0	0	0	0	0	0	0	0	0	0	0	4
8	15	4	20	0	0	0	0	0	0	0	0	0	0	0	0	0	0	0	0	4
8	15	4	21	0	0	0	0	0	0	0	0	0	0	0	0	0	0	0	0	4
8	15	4	22	0	0	0	0	0	0	0	0	0	0	0	0	0	0	0	0	4
8	15	4	23	0	0	0	0	0	0	0	0	0	0	0	0	0	0	0	0	4
8	15	4	24	0	0	0	0	0	0	0	0	0	0	0	0	0	0	0	0	4
8	15	4	25	0	0	0	0	0	0	0	0	0	0	0	0	0	0	0	0	4
8	15	4	26	0	0	0	0	0	0	0	0	0	0	0	0	0	0	0	0	4
8	15	4	27	0	0	0	0	0	0	0	0	0	0	0	0	0	0	0	0	4
8	16	4	21	0	0	0	0	0	0	0	0	0	0	0	0	0	0	0	0	4
8	16	4	22	0	0	0	0	0	0	0	0	0	0	0	0	0	0	0	0	4
8	16	4	23	0	0	0	0	0	0	0	0	0	0	0	0	0	0	0	0	4
8	16	4	24	0	0	0	0	0	0	0	0	0	0	0	0	0	0	0	0	4
8	16	4	25	0	0	0	0	0	0	0	0	0	0	0	0	0	0	0	0	4
8	16	4	26	0	0	0	0	0	0	0	0	0	0	0	0	0	0	0	0	4
8	16	4	27	0	0	0	0	0	0	0	0	0	0	0	0	0	0	0	0	4
8	16	4	28	0	0	0	0	0	0	0	0	0	0	0	0	0	0	0	0	4
8	17	4	22	0	0	0	0	0	0	0	0	0	0	0	0	0	0	0	0	4
8	17	4	23	0	0	0	0	0	0	0	0	0	0	0	0	0	0	0	0	4
8	17	4	24	0	0	0	0	0	0	0	0	0	0	0	0	0	0	0	0	4
8	17	4	25	0	0	0	0	0	0	0	0	0	0	0	0	0	0	0	0	4
8	17	4	26	0	0	0	0	0	0	0	0	0	0	0	0	0	0	0	0	4
8	17	4	27	0	0	0	0	0	0	0	0	0	0	0	0	0	0	0	0	4
8	17	4	28	0	0	0	0	0	0	0	0	0	0	0	0	0	0	0	0	4
8	17	4	29	0	0	0	0	0	0	0	0	0	0	0	0	0	0	0	0	4
8	18	4	23	0	0	0	0	0	0	0	0	0	0	0	0	0	0	0	0	4
8	18	4	24	0	0	0	0	0	0	0	0	0	0	0	0	0	0	0	0	4
8	18	4	25	0	0	0	0	0	0	0	0	0	0	0	0	0	0	0	0	4
8	18	4	26	0	0	0	0	0	0	0	0	0	0	0	0	0	0	0	0	4
8	18	4	27	0	0	0	0	0	0	0	0	0	0	0	0	0	0	0	0	4
8	18	4	28	0	0	0	0	0	0	0	0	0	0	0	0	0	0	0	0	4
8	18	4	29	0	0	0	0	0	0	0	0	0	0	0	0	0	0	0	0	4
8	18	4	30	0	0	0	0	0	0	0	0	0	0	0	0	0	0	0	0	4
8	19	4	24	0	0	0	0	0	0	0	0	0	0	0	0	0	0	0	0	4
8	19	4	25	0	0	0	0	0	0	0	0	0	0	0	0	0	0	0	0	4
8	19	4	26	0	0	0	0	0	0	0	0	0	0	0	0	0	0	0	0	4
8	19	4	27	0	0	0	0	0	0	0	0	0	0	0	0	0	0	0	0	4
8	19	4	28	0	0	0	0	0	0	0	0	0	0	0	0	0	0	0	0	4
8	19	4	29	0	0	0	0	0	0	0	0	0	0	0	0	0	0	0	0	4
8	19	4	30	0	0	0	0	0	0	0	0	0	0	0	0	0	0	0	0	4
8	19	4	31	0	0	0	0	0	0	0	0	0	0	0	0	0	0	0	0	4
8	20	4	25	0	0	0	0	0	0	0	0	0	0	0	0	0	0	0	0	4
8	20	4	26	0	0	0	0	0	0	0	0	0	0	0	0	0	0	0	0	4
8	20	4	27	0	0	0	0	0	0	0	0	0	0	0	0	0	0	0	0	4
8	20	4	28	0	0	0	0	0	0	0	0	0	0	0	0	0	0	0	0	4
8	20	4	29	0	0	0	0	0	0	0	0	0	0	0	0	0	0	0	0	4
8	20	4	30	0	0	0	0	0	0	0	0	0	0	0	0	0	0	0	0	4
8	20	4	31	0	0	0	0	0	0	0	0	0	0	0	0	0	0	0	0	4
8	20	4	32	0	0	0	0	0	0	0	0	0	0	0	0	0	0	0	0	4
8	21	4	26	0	0	0	0	0	0	0	0	0	0	0	0	0	0	0	0	4
8	21	4	27	0	0	0	0	0	0	0	0	0	0	0	0	0	0	0	0	4
8	21	4	28	0	0	0	0	0	0	0	0	0	0	0	0	0	0	0	0	4
8	21	4	29	0	0	0	0	0	0	0	0	0	0	0	0	0	0	0	0	4
8	21	4	30	0	0	0	0	0	0	0	0	0	0	0	0	0	0	0	0	4
8	21	4	31	0	0	0	0	0	0	0	0	0	0	0	0	0	0	0	0	4
8	21	4	32	0	0	0	0	0	0	0	0	0	0	0	0	0	0	0	0	4
8	21	4	33	0	0	0	0	0	0	0	0	0	0	0	0	0	0	0	0	4
8	22	4	27	0	0	0	0	0	0	0	0	0	0	0	0	0	0	0	0	4
8	22	4	28	0	0	0	0	0	0	0	0	0	0	0	0	0	0	0	0	4
8	22	4	29	0	0	0	0	0	0	0	0	0	0	0	0	0	0	0	0	4
8	22	4	30	0	0	0	0	0	0	0	0	0	0	0	0	0	0	0	0	4
8	22	4	31	0	0	0	0	0	0	0	0	0	0	0	0	0	0	0	0	4
8	22	4	32	0	0	0	0	0	0	0	0	0	0	0	0	0	0	0	0	4
8	22	4	33	0	0	0	0	0	0	0	0	0	0	0	0	0	0	0	0	4
8	22	4	34	0	0	0	0	0	0	0	0	0	0	0	0	0	0	0	0	4
8	23	4	28	0	0	0	0	0	0	0	0	0	0	0	0	0	0	0	0	4
8	23	4	29	0	0	0	0	0	0	0	0	0	0	0	0	0	0	0	0	4
8	23	4	30	0	0	0	0	0	0	0	0	0	0	0	0	0	0	0	0	4
8	23	4	31	0	0	0	0	0	0	0	0	0	0	0	0	0	0	0	0	4
8	23	4	32	0	0	0	0	0	0	0	0	0	0	0	0	0	0	0	0	4
8	23	4	33	0	0	0	0	0	0	0	0	0	0	0	0	0	0	0	0	4
8	23	4	34	0	0	0	0	0	0	0	0	0	0	0	0	0	0	0	0	4
8	23	4	35	0	0	0	0	0	0	0	0	0	0	0	0	0	0	0	0	4
8	24	4	29	0	0	0	0	0	0	0	0	0	0	0	0	0	0	0	0	4
8	24	4	30	0	0	0	0	0	0	0	0	0	0	0	0	0	0	0	0	4
8	24	4	31	0	0	0	0	0	0	0	0	0	0	0	0	0	0	0	0	4
8	24	4	32	0	0	0	0	0	0	0	0	0	0	0	0	0	0	0	0	4
8	24	4	33	0	0	0	0	0	0	0	0	0	0	0	0	0	0	0	0	4
8	24	4	34	0	0	0	0	0	0	0	0	0	0	0	0	0	0	0	0	4
8	24	4	35	0	0	0	0	0	0	0	0	0	0	0	0	0	0	0	0	4
8	24	4	36	0	0	0	0	0	0	0	0	0	0	0	0	0	0	0	0	4
8	25	4	30	0	0	0	0	0	0	0	0	0	0	0	0	0	0	0	0	4
8	25	4	31	0	0	0	0	0	0	0	0	0	0	0	0	0	0	0	0	4
8	25	4	32	0	0	0	0	0	0	0	0	0	0	0	0	0	0	0	0	4
8	25	4	33	0	0	0	0	0	0	0	0	0	0	0	0	0	0	0	0	4
8	25	4	34	0	0	0	0	0	0	0	0	0	0	0	0	0	0	0	0	4
8	25	4	35	0	0	0	0	0	0	0	0	0	0	0	0	0	0	0	0	4
8	25	4	36	0	0	0	0	0	0	0	0	0	0	0	0	0	0	0	0	4
8	25	4	37	0	0	0	0	0	0	0	0	0	0	0	0	0	0	0	0	4
8	26	4	31	0	0	0	0	0	0	0	0	0	0	0	0	0	0	0	0	4
8	26	4	32	0	0	0	0	0	0	0	0	0	0	0	0	0	0	0	0	4
8	26	4	33	0	0	0	0	0	0	0	0	0	0	0	0	0	0	0	0	4
8	26	4	34	0	0	0	0	0	0	0	0	0	0	0	0	0	0	0	0	4
8	26	4	35	0	0	0	0	0	0	0	0	0	0	0	0	0	0	0	0	4
8	26	4	36	0	0	0	0	0	0	0	0	0	0	0	0	0	0	0	0	4
8	26	4	37	0	0	0	0	0	0	0	0	0	0	0	0	0	0	0	0	4
8	26	4	38	0	0	0	0	0	0	0	0	0	0	0	0	0	0	0	0	4
8	27	4	32	0	0	0	0	0	0	0	0	0	0	0	0	0	0	0	0	4
8	27	4	33	0	0	0	0	0	0	0	0	0	0	0	0	0	0	0	0	4
8	27	4	34	0	0	0	0	0	0	0	0	0	0	0	0	0	0	0	0	4
8	27	4	35	0	0	0	0	0	0	0	0	0	0	0	0	0	0	0	0	4
8	27	4	36	0	0	0	0	0	0	0	0	0	0	0	0	0	0	0	0	4
8	27	4	37	0	0	0	0	0	0	0	0	0	0	0	0	0	0	0	0	4
8	27	4	38	0	0	0	0	0	0	0	0	0	0	0	0	0	0	0	0	4
8	27	4	39	0	0	0	0	0	0	0	0	0	0	0	0	0	0	0	0	4
8	28	4	33	0	0	0	0	0	0	0	0	0	0	0	0	0	0	0	0	4
8	28	4	34	0	0	0	0	0	0	0	0	0	0	0	0	0	0	0	0	4
8	28	4	35	0	0	0	0	0	0	0	0	0	0	0	0	0	0	0	0	4
8	28	4	36	0	0	0	0	0	0	0	0	0	0	0	0	0	0	0	0	4
8	28	4	37	0	0	0	0	0	0	0	0	0	0	0	0	0	0	0	0	4
8	28	4	38	0	0	0	0	0	0	0	0	0	0	0	0	0	0	0	0	4
8	28	4	39	0	0	0	0	0	0	0	0	0	0	0	0	0	0	0	0	4
8	28	4	40	0	0	0	0	0	0	0	0	0	0	0	0	0	0	0	0	4
8	29	4	34	0	0	0	0	0	0	0	0	0	0	0	0	0	0	0	0	4
8	29	4	35	0	0	0	0	0	0	0	0	0	0	0	0	0	0	0	0	4
8	29	4	36	0	0	0	0	0	0	0	0	0	0	0	0	0	0	0	0	4
8	29	4	37	0	0	0	0	0	0	0	0	0	0	0	0	0	0	0	0	4
8	29	4	38	0	0	0	0	0	0	0	0	0	0	0	0	0	0	0	0	4
8	29	4	39	0	0	0	0	0	0	0	0	0	0	0	0	0	0	0	0	4
8	29	4	40	0	0	0	0	0	0	0	0	0	0	0	0	0	0	0	0	4
8	29	4	41	0	0	0	0	0	0	0	0	0	0	0	0	0	0	0	0	4
8	30	4	35	0	0	0	0	0	0	0	0	0	0	0	0	0	0	0	0	4
8	30	4	36	0	0	0	0	0	0	0	0	0	0	0	0	0	0	0	0	4
8	30	4	37	0	0	0	0	0	0	0	0	0	0	0	0	0	0	0	0	4
8	30	4	38	0	0	0	0	0	0	0	0	0	0	0	0	0	0	0	0	4
8	30	4	39	0	0	0	0	0	0	0	0	0	0	0	0	0	0	0	0	4
8	30	4	40	0	0	0	0	0	0	0	0	0	0	0	0	0	0	0	0	4
8	30	4	41	0	0	0	0	0	0	0	0	0	0	0	0	0	0	0	0	4
8	30	4	42	0	0	0	0	0	0	0	0	0	0	0	0	0	0	0	0	4
8	31	4	36	0	0	0	0	0	0	0	0	0	0	0	0	0	0	0	0	4
8	31	4	37	0	0	0	0	0	0	0	0	0	0	0	0	0	0	0	0	4
8	31	4	38	0	0	0	0	0	0	0	0	0	0	0	0	0	0	0	0	4
8	31	4	39	0	0	0	0	0	0	0	0	0	0	0	0	0	0	0	0	4
8	31	4	40	0	0	0	0	0	0	0	0	0	0	0	0	0	0	0	0	4
8	31	4	41	0	0	0	0	0	0	0	0	0	0	0	0	0	0	0	0	4
8	31	4	42	0	0	0	0	0	0	0	0	0	0	0	0	0	0	0	0	4
8	31	4	43	0	0	0	0	0	0	0	0	0	0	0	0	0	0	0	0	4
8	32	4	37	0	0	0	0	0	0	0	0	0	0	0	0	0	0	0	0	4
8	32	4	38	0	0	0	0	0	0	0	0	0	0	0	0	0	0	0	0	4
8	32	4	39	0	0	0	0	0	0	0	0	0	0	0	0	0	0	0	0	4
8	32	4	40	0	0	0	0	0	0	0	0	0	0	0	0	0	0	0	0	4
8	32	4	41	0	0	0	0	0	0	0	0	0	0	0	0	0	0	0	0	4
8	32	4	42	0	0	0	0	0	0	0	0	0	0	0	0	0	0	0	0	4
8	32	4	43	0	0	0	0	0	0	0	0	0	0	0	0	0	0	0	0	4
8	32	4	44	0	0	0	0	0	0	0	0	0	0	0	0	0	0	0	0	4
8	33	4	38	0	0	0	0	0	0	0	0	0	0	0	0	0	0	0	0	4
8	33	4	39	0	0	0	0	0	0	0	0	0	0	0	0	0	0	0	0	4
8	33	4	40	0	0	0	0	0	0	0	0	0	0	0	0	0	0	0	0	4
8	33	4	41	0	0	0	0	0	0	0	0	0	0	0	0	0	0	0	0	4
8	33	4	42	0	0	0	0	0	0	0	0	0	0	0	0	0	0	0	0	4
8	33	4	43	0	0	0	0	0	0	0	0	0	0	0	0	0	0	0	0	4
8	33	4	44	0	0	0	0	0	0	0	0	0	0	0	0	0	0	0	0	4
8	33	4	45	0	0	0	0	0	0	0	0	0	0	0	0	0	0	0	0	4
8	34	4	39	0	0	0	0	0	0	0	0	0	0	0	0	0	0	0	0	4
8	34	4	40	0	0	0	0	0	0	0	0	0	0	0	0	0	0	0	0	4
8	34	4	41	0	0	0	0	0	0	0	0	0	0	0	0	0	0	0	0	4
8	34	4	42	0	0	0	0	0	0	0	0	0	0	0	0	0	0	0	0	4
8	34	4	43	0	0	0	0	0	0	0	0	0	0	0	0	0	0	0	0	4
8	34	4	44	0	0	0	0	0	0	0	0	0	0	0	0	0	0	0	0	4
8	34	4	45	0	0	0	0	0	0	0	0	0	0	0	0	0	0	0	0	4
8	34	4	46	0	0	0	0	0	0	0	0	0	0	0	0	0	0	0	0	4
8	35	4	40	0	0	0	0	0	0	0	0	0	0	0	0	0	0	0	0	4
8	35	4	41	0	0	0	0	0	0	0	0	0	0	0	0	0	0	0	0	4
8	35	4	42	0	0	0	0	0	0	0	0	0	0	0	0	0	0	0	0	4
8	35	4	43	0	0	0	0	0	0	0	0	0	0	0	0	0	0	0	0	4
8	35	4	44	0	0	0	0	0	0	0	0	0	0	0	0	0	0	0	0	4
8	35	4	45	0	0	0	0	0	0	0	0	0	0	0	0	0	0	0	0	4
8	35	4	46	0	0	0	0	0	0	0	0	0	0	0	0	0	0	0	0	4
8	35	4	47	0	0	0	0	0	0	0	0	0	0	0	0	0	0	0	0	4
8	36	4	41	0	0	0	0	0	0	0	0	0	0	0	0	0	0	0	0	4
8	36	4	42	0	0	0	0	0	0	0	0	0	0	0	0	0	0	0	0	4
8	36	4	43	0	0	0	0	0	0	0	0	0	0	0	0	0	0	0	0	4
8	36	4	44	0	0	0	0	0	0	0	0	0	0	0	0	0	0	0	0	4
8	36	4	45	0	0	0	0	0	0	0	0	0	0	0	0	0	0	0	0	4
8	36	4	46	0	0	0	0	0	0	0	0	0	0	0	0	0	0	0	0	4
8	36	4	47	0	0	0	0	0	0	0	0	0	0	0	0	0	0	0	0	4
8	36	4	48	0	0	0	0	0	0	0	0	0	0	0	0	0	0	0	0	4
8	37	4	42	0	0	0	0	0	0	0	0	0	0	0	0	0	0	0	0	4
8	37	4	43	0	0	0	0	0	0	0	0	0	0	0	0	0	0	0	0	4
8	37	4	44	0	0	0	0	0	0	0	0	0	0	0	0	0	0	0	0	4
8	37	4	45	0	0	0	0	0	0	0	0	0	0	0	0	0	0	0	0	4
8	37	4	46	0	0	0	0	0	0	0	0	0	0	0	0	0	0	0	0	4
8	37	4	47	0	0	0	0	0	0	0	0	0	0	0	0	0	0	0	0	4
8	37	4	48	0	0	0	0	0	0	0	0	0	0	0	0	0	0	0	0	4
8	37	4	49	0	0	0	0	0	0	0	0	0	0	0	0	0	0	0	0	4
8	38	4	43	0	0	0	0	0	0	0	0	0	0	0	0	0	0	0	0	4
8	38	4	44	0	0	0	0	0	0	0	0	0	0	0	0	0	0	0	0	4
8	38	4	45	0	0	0	0	0	0	0	0	0	0	0	0	0	0	0	0	4
8	38	4	46	0	0	0	0	0	0	0	0	0	0	0	0	0	0	0	0	4
8	38	4	47	0	0	0	0	0	0	0	0	0	0	0	0	0	0	0	0	4
8	38	4	48	0	0	0	0	0	0	0	0	0	0	0	0	0	0	0	0	4
8	38	4	49	0	0	0	0	0	0	0	0	0	0	0	0	0	0	0	0	4
8	38	4	50	0	0	0	0	0	0	0	0	0	0	0	0	0	0	0	0	4
8	39	4	44	0	0	0	0	0	0	0	0	0	0	0	0	0	0	0	0	4
8	39	4	45	0	0	0	0	0	0	0	0	0	0	0	0	0	0	0	0	4
8	39	4	46	0	0	0	0	0	0	0	0	0	0	0	0	0	0	0	0	4
8	39	4	47	0	0	0	0	0	0	0	0	0	0	0	0	0	0	0	0	4
8	39	4	48	0	0	0	0	0	0	0	0	0	0	0	0	0	0	0	0	4
8	39	4	49	0	0	0	0	0	0	0	0	0	0	0	0	0	0	0	0	4
8	39	4	50	0	0	0	0	0	0	0	0	0	0	0	0	0	0	0	0	4
8	39	4	51	0	0	0	0	0	0	0	0	0	0	0	0	0	0	0	0	4
8	40	4	45	0	0	0	0	0	0	0	0	0	0	0	0	0	0	0	0	4
8	40	4	46	0	0	0	0	0	0	0	0	0	0	0	0	0	0	0	0	4
8	40	4	47	0	0	0	0	0	0	0	0	0	0	0	0	0	0	0	0	4
8	40	4	48	0	0	0	0	0	0	0	0	0	0	0	0	0	0	0	0	4
8	40	4	49	0	0	0	0	0	0	0	0	0	0	0	0	0	0	0	0	4
8	40	4	50	0	0	0	0	0	0	0	0	0	0	0	0	0	0	0	0	4
8	40	4	51	0	0	0	0	0	0	0	0	0	0	0	0	0	0	0	0	4
8	40	4	52	0	0	0	0	0	0	0	0	0	0	0	0	0	0	0	0	4
8	41	4	46	0	0	0	0	0	0	0	0	0	0	0	0	0	0	0	0	4
8	41	4	47	0	0	0	0	0	0	0	0	0	0	0	0	0	0	0	0	4
8	41	4	48	0	0	0	0	0	0	0	0	0	0	0	0	0	0	0	0	4
8	41	4	49	0	0	0	0	0	0	0	0	0	0	0	0	0	0	0	0	4
8	41	4	50	0	0	0	0	0	0	0	0	0	0	0	0	0	0	0	0	4
8	41	4	51	0	0	0	0	0	0	0	0	0	0	0	0	0	0	0	0	4
8	41	4	52	0	0	0	0	0	0	0	0	0	0	0	0	0	0	0	0	4
8	41	4	53	0	0	0	0	0	0	0	0	0	0	0	0	0	0	0	0	4
8	42	4	47	0	0	0	0	0	0	0	0	0	0	0	0	0	0	0	0	4
8	42	4	48	0	0	0	0	0	0	0	0	0	0	0	0	0	0	0	0	4
8	42	4	49	0	0	0	0	0	0	0	0	0	0	0	0	0	0	0	0	4
8	42	4	50	0	0	0	0	0	0	0	0	0	0	0	0	0	0	0	0	4
8	42	4	51	0	0	0	0	0	0	0	0	0	0	0	0	0	0	0	0	4
8	42	4	52	0	0	0	0	0	0	0	0	0	0	0	0	0	0	0	0	4
8	42	4	53	0	0	0	0	0	0	0	0	0	0	0	0	0	0	0	0	4
8	42	4	54	0	0	0	0	0	0	0	0	0	0	0	0	0	0	0	0	4
8	43	4	48	0	0	0	0	0	0	0	0	0	0	0	0	0	0	0	0	4
8	43	4	49	0	0	0	0	0	0	0	0	0	0	0	0	0	0	0	0	4
8	43	4	50	0	0	0	0	0	0	0	0	0	0	0	0	0	0	0	0	4
8	43	4	51	0	0	0	0	0	0	0	0	0	0	0	0	0	0	0	0	4
8	43	4	52	0	0	0	0	0	0	0	0	0	0	0	0	0	0	0	0	4
8	43	4	53	0	0	0	0	0	0	0	0	0	0	0	0	0	0	0	0	4
8	43	4	54	0	0	0	0	0	0	0	0	0	0	0	0	0	0	0	0	4
8	43	4	55	0	0	0	0	0	0	0	0	0	0	0	0	0	0	0	0	4
8	44	4	49	0	0	0	0	0	0	0	0	0	0	0	0	0	0	0	0	4
8	44	4	50	0	0	0	0	0	0	0	0	0	0	0	0	0	0	0	0	4
8	44	4	51	0	0	0	0	0	0	0	0	0	0	0	0	0	0	0	0	4
8	44	4	52	0	0	0	0	0	0	0	0	0	0	0	0	0	0	0	0	4
8	44	4	53	0	0	0	0	0	0	0	0	0	0	0	0	0	0	0	0	4
8	44	4	54	0	0	0	0	0	0	0	0	0	0	0	0	0	0	0	0	4
8	44	4	55	0	0	0	0	0	0	0	0	0	0	0	0	0	0	0	0	4
8	44	4	56	0	0	0	0	0	0	0	0	0	0	0	0	0	0	0	0	4
8	45	4	50	0	0	0	0	0	0	0	0	0	0	0	0	0	0	0	0	4
8	45	4	51	0	0	0	0	0	0	0	0	0	0	0	0	0	0	0	0	4
8	45	4	52	0	0	0	0	0	0	0	0	0	0	0	0	0	0	0	0	4
8	45	4	53	0	0	0	0	0	0	0	0	0	0	0	0	0	0	0	0	4
8	45	4	54	0	0	0	0	0	0	0	0	0	0	0	0	0	0	0	0	4
8	45	4	55	0	0	0	0	0	0	0	0	0	0	0	0	0	0	0	0	4
8	45	4	56	0	0	0	0	0	0	0	0	0	0	0	0	0	0	0	0	4
8	45	4	57	0	0	0	0	0	0	0	0	0	0	0	0	0	0	0	0	4
8	46	4	51	0	0	0	0	0	0	0	0	0	0	0	0	0	0	0	0	4
8	46	4	52	0	0	0	0	0	0	0	0	0	0	0	0	0	0	0	0	4
8	46	4	53	0	0	0	0	0	0	0	0	0	0	0	0	0	0	0	0	4
8	46	4	54	0	0	0	0	0	0	0	0	0	0	0	0	0	0	0	0	4
8	46	4	55	0	0	0	0	0	0	0	0	0	0	0	0	0	0	0	0	4
8	46	4	56	0	0	0	0	0	0	0	0	0	0	0	0	0	0	0	0	4
8	46	4	57	0	0	0	0	0	0	0	0	0	0	0	0	0	0	0	0	4
8	46	4	58	0	0	0	0	0	0	0	0	0	0	0	0	0	0	0	0	4
8	47	4	52	0	0	0	0	0	0	0	0	0	0	0	0	0	0	0	0	4
8	47	4	53	0	0	0	0	0	0	0	0	0	0	0	0	0	0	0	0	4
8	47	4	54	0	0	0	0	0	0	0	0	0	0	0	0	0	0	0	0	4
8	47	4	55	0	0	0	0	0	0	0	0	0	0	0	0	0	0	0	0	4
8	47	4	56	0	0	0	0	0	0	0	0	0	0	0	0	0	0	0	0	4
8	47	4	57	0	0	0	0	0	0	0	0	0	0	0	0	0	0	0	0	4
8	47	4	58	0	0	0	0	0	0	0	0	0	0	0	0	0	0	0	0	4
8	47	4	59	0	0	0	0	0	0	0	0	0	0	0	0	0	0	0	0	4
8	48	4	53	0	0	0	0	0	0	0	0	0	0	0	0	0	0	0	0	4
8	48	4	54	0	0	0	0	0	0	0	0	0	0	0	0	0	0	0	0	4
8	48	4	55	0	0	0	0	0	0	0	0	0	0	0	0	0	0	0	0	4
8	48	4	56	0	0	0	0	0	0	0	0	0	0	0	0	0	0	0	0	4
8	48	4	57	0	0	0	0	0	0	0	0	0	0	0	0	0	0	0	0	4
8	48	4	58	0	0	0	0	0	0	0	0	0	0	0	0	0	0	0	0	4
8	48	4	59	0	0	0	0	0	0	0	0	0	0	0	0	0	0	0	0	4
8	48	4	60	0	0	0	0	0	0	0	0	0	0	0	0	0	0	0	0	4
8	49	4	54	0	0	0	0	0	0	0	0	0	0	0	0	0	0	0	0	4
8	49	4	55	0	0	0	0	0	0	0	0	0	0	0	0	0	0	0	0	4
8	49	4	56	0	0	0	0	0	0	0	0	0	0	0	0	0	0	0	0	4
8	49	4	57	0	0	0	0	0	0	0	0	0	0	0	0	0	0	0	0	4
8	49	4	58	0	0	0	0	0	0	0	0	0	0	0	0	0	0	0	0	4
8	49	4	59	0	0	0	0	0	0	0	0	0	0	0	0	0	0	0	0	4
8	49	4	60	0	0	0	0	0	0	0	0	0	0	0	0	0	0	0	0	4
8	49	4	61	0	0	0	0	0	0	0	0	0	0	0	0	0	0	0	0	4
8	50	4	55	0	0	0	0	0	0	0	0	0	0	0	0	0	0	0	0	4
8	50	4	56	0	0	0	0	0	0	0	0	0	0	0	0	0	0	0	0	4
8	50	4	57	0	0	0	0	0	0	0	0	0	0	0	0	0	0	0	0	4
8	50	4	58	0	0	0	0	0	0	0	0	0	0	0	0	0	0	0	0	4
8	50	4	59	0	0	0	0	0	0	0	0	0	0	0	0	0	0	0	0	4
8	50	4	60	0	0	0	0	0	0	0	0	0	0	0	0	0	0	0	0	4
8	50	4	61	0	0	0	0	0	0	0	0	0	0	0	0	0	0	0	0	4
8	50	4	62	0	0	0	0	0	0	0	0	0	0	0	0	0	0	0	0	4
8	51	4	56	0	0	0	0	0	0	0	0	0	0	0	0	0	0	0	0	4
8	51	4	57	0	0	0	0	0	0	0	0	0	0	0	0	0	0	0	0	4
8	51	4	58	0	0	0	0	0	0	0	0	0	0	0	0	0	0	0	0	4
8	51	4	59	0	0	0	0	0	0	0	0	0	0	0	0	0	0	0	0	4
8	51	4	60	0	0	0	0	0	0	0	0	0	0	0	0	0	0	0	0	4
8	51	4	61	0	0	0	0	0	0	0	0	0	0	0	0	0	0	0	0	4
8	51	4	62	0	0	0	0	0	0	0	0	0	0	0	0	0	0	0	0	4
8	51	4	63	0	0	0	0	0	0	0	0	0	0	0	0	0	0	0	0	4
8	52	4	57	0	0	0	0	0	0	0	0	0	0	0	0	0	0	0	0	4
8	52	4	58	0	0	0	0	0	0	0	0	0	0	0	0	0	0	0	0	4
8	52	4	59	0	0	0	0	0	0	0	0	0	0	0	0	0	0	0	0	4
8	52	4	60	0	0	0	0	0	0	0	0	0	0	0	0	0	0	0	0	4
8	52	4	61	0	0	0	0	0	0	0	0	0	0	0	0	0	0	0	0	4
8	52	4	62	0	0	0	0	0	0	0	0	0	0	0	0	0	0	0	0	4
8	52	4	63	0	0	0	0	0	0	0	0	0	0	0	0	0	0	0	0	4
8	52	4	64	0	0	0	0	0	0	0	0	0	0	0	0	0	0	0	0	4
8	53	4	58	0	0	0	0	0	0	0	0	0	0	0	0	0	0	0	0	4
8	53	4	59	0	0	0	0	0	0	0	0	0	0	0	0	0	0	0	0	4
8	53	4	60	0	0	0	0	0	0	0	0	0	0	0	0	0	0	0	0	4
8	53	4	61	0	0	0	0	0	0	0	0	0	0	0	0	0	0	0	0	4
8	53	4	62	0	0	0	0	0	0	0	0	0	0	0	0	0	0	0	0	4
8	53	4	63	0	0	0	0	0	0	0	0	0	0	0	0	0	0	0	0	4
8	53	4	64	0	0	0	0	0	0	0	0	0	0	0	0	0	0	0	0	4
8	53	4	65	0	0	0	0	0	0	0	0	0	0	0	0	0	0	0	0	4
8	54	4	59	0	0	0	0	0	0	0	0	0	0	0	0	0	0	0	0	4
8	54	4	60	0	0	0	0	0	0	0	0	0	0	0	0	0	0	0	0	4
8	54	4	61	0	0	0	0	0	0	0	0	0	0	0	0	0	0	0	0	4
8	54	4	62	0	0	0	0	0	0	0	0	0	0	0	0	0	0	0	0	4
8	54	4	63	0	0	0	0	0	0	0	0	0	0	0	0	0	0	0	0	4
8	54	4	64	0	0	0	0	0	0	0	0	0	0	0	0	0	0	0	0	4
8	54	4	65	0	0	0	0	0	0	0	0	0	0	0	0	0	0	0	0	4
8	54	4	66	0	0	0	0	0	0	0	0	0	0	0	0	0	0	0	0	4
8	55	4	60	0	0	0	0	0	0	0	0	0	0	0	0	0	0	0	0	4
8	55	4	61	0	0	0	0	0	0	0	0	0	0	0	0	0	0	0	0	4
8	55	4	62	0	0	0	0	0	0	0	0	0	0	0	0	0	0	0	0	4
8	55	4	63	0	0	0	0	0	0	0	0	0	0	0	0	0	0	0	0	4
8	55	4	64	0	0	0	0	0	0	0	0	0	0	0	0	0	0	0	0	4
8	55	4	65	0	0	0	0	0	0	0	0	0	0	0	0	0	0	0	0	4
8	55	4	66	0	0	0	0	0	0	0	0	0	0	0	0	0	0	0	0	4
8	55	4	67	0	0	0	0	0	0	0	0	0	0	0	0	0	0	0	0	4
8	56	4	61	0	0	0	0	0	0	0	0	0	0	0	0	0	0	0	0	4
8	56	4	62	0	0	0	0	0	0	0	0	0	0	0	0	0	0	0	0	4
8	56	4	63	0	0	0	0	0	0	0	0	0	0	0	0	0	0	0	0	4
8	56	4	64	0	0	0	0	0	0	0	0	0	0	0	0	0	0	0	0	4
8	56	4	65	0	0	0	0	0	0	0	0	0	0	0	0	0	0	0	0	4
8	56	4	66	0	0	0	0	0	0	0	0	0	0	0	0	0	0	0	0	4
8	56	4	67	0	0	0	0	0	0	0	0	0	0	0	0	0	0	0	0	4
8	56	4	68	0	0	0	0	0	0	0	0	0	0	0	0	0	0	0	0	4
8	57	4	62	0	0	0	0	0	0	0	0	0	0	0	0	0	0	0	0	4
8	57	4	63	0	0	0	0	0	0	0	0	0	0	0	0	0	0	0	0	4
8	57	4	64	0	0	0	0	0	0	0	0	0	0	0	0	0	0	0	0	4
8	57	4	65	0	0	0	0	0	0	0	0	0	0	0	0	0	0	0	0	4
8	57	4	66	0	0	0	0	0	0	0	0	0	0	0	0	0	0	0	0	4
8	57	4	67	0	0	0	0	0	0	0	0	0	0	0	0	0	0	0	0	4
8	57	4	68	0	0	0	0	0	0	0	0	0	0	0	0	0	0	0	0	4
8	57	4	69	0	0	0	0	0	0	0	0	0	0	0	0	0	0	0	0	4
8	58	4	63	0	0	0	0	0	0	0	0	0	0	0	0	0	0	0	0	4
8	58	4	64	0	0	0	0	0	0	0	0	0	0	0	0	0	0	0	0	4
8	58	4	65	0	0	0	0	0	0	0	0	0	0	0	0	0	0	0	0	4
8	58	4	66	0	0	0	0	0	0	0	0	0	0	0	0	0	0	0	0	4
8	58	4	67	0	0	0	0	0	0	0	0	0	0	0	0	0	0	0	0	4
8	58	4	68	0	0	0	0	0	0	0	0	0	0	0	0	0	0	0	0	4
8	58	4	69	0	0	0	0	0	0	0	0	0	0	0	0	0	0	0	0	4
8	58	4	70	0	0	0	0	0	0	0	0	0	0	0	0	0	0	0	0	4
8	59	4	64	0	0	0	0	0	0	0	0	0	0	0	0	0	0	0	0	4
8	59	4	65	0	0	0	0	0	0	0	0	0	0	0	0	0	0	0	0	4
8	59	4	66	0	0	0	0	0	0	0	0	0	0	0	0	0	0	0	0	4
8	59	4	67	0	0	0	0	0	0	0	0	0	0	0	0	0	0	0	0	4
8	59	4	68	0	0	0	0	0	0	0	0	0	0	0	0	0	0	0	0	4
8	59	4	69	0	0	0	0	0	0	0	0	0	0	0	0	0	0	0	0	4
8	59	4	70	0	0	0	0	0	0	0	0	0	0	0	0	0	0	0	0	4
8	59	4	71	0	0	0	0	0	0	0	0	0	0	0	0	0	0	0	0	4
8	60	4	65	0	0	0	0	0	0	0	0	0	0	0	0	0	0	0	0	4
8	60	4	66	0	0	0	0	0	0	0	0	0	0	0	0	0	0	0	0	4
8	60	4	67	0	0	0	0	0	0	0	0	0	0	0	0	0	0	0	0	4
8	60	4	68	0	0	0	0	0	0	0	0	0	0	0	0	0	0	0	0	4
8	60	4	69	0	0	0	0	0	0	0	0	0	0	0	0	0	0	0	0	4
8	60	4	70	0	0	0	0	0	0	0	0	0	0	0	0	0	0	0	0	4
8	60	4	71	0	0	0	0	0	0	0	0	0	0	0	0	0	0	0	0	4
8	60	4	72	0	0	0	0	0	0	0	0	0	0	0	0	0	0	0	0	4
8	61	4	66	0	0	0	0	0	0	0	0	0	0	0	0	0	0	0	0	4
8	61	4	67	0	0	0	0	0	0	0	0	0	0	0	0	0	0	0	0	4
8	61	4	68	0	0	0	0	0	0	0	0	0	0	0	0	0	0	0	0	4
8	61	4	69	0	0	0	0	0	0	0	0	0	0	0	0	0	0	0	0	4
8	61	4	70	0	0	0	0	0	0	0	0	0	0	0	0	0	0	0	0	4
8	61	4	71	0	0	0	0	0	0	0	0	0	0	0	0	0	0	0	0	4
8	61	4	72	0	0	0	0	0	0	0	0	0	0	0	0	0	0	0	0	4
8	61	4	73	0	0	0	0	0	0	0	0	0	0	0	0	0	0	0	0	4
8	62	4	67	0	0	0	0	0	0	0	0	0	0	0	0	0	0	0	0	4
8	62	4	68	0	0	0	0	0	0	0	0	0	0	0	0	0	0	0	0	4
8	62	4	69	0	0	0	0	0	0	0	0	0	0	0	0	0	0	0	0	4
8	62	4	70	0	0	0	0	0	0	0	0	0	0	0	0	0	0	0	0	4
8	62	4	71	0	0	0	0	0	0	0	0	0	0	0	0	0	0	0	0	4
8	62	4	72	0	0	0	0	0	0	0	0	0	0	0	0	0	0	0	0	4
8	62	4	73	0	0	0	0	0	0	0	0	0	0	0	0	0	0	0	0	4
8	62	4	74	0	0	0	0	0	0	0	0	0	0	0	0	0	0	0	0	4
8	63	4	68	0	0	0	0	0	0	0	0	0	0	0	0	0	0	0	0	4
8	63	4	69	0	0	0	0	0	0	0	0	0	0	0	0	0	0	0	0	4
8	63	4	70	0	0	0	0	0	0	0	0	0	0	0	0	0	0	0	0	4
8	63	4	71	0	0	0	0	0	0	0	0	0	0	0	0	0	0	0	0	4
8	63	4	72	0	0	0	0	0	0	0	0	0	0	0	0	0	0	0	0	4
8	63	4	73	0	0	0	0	0	0	0	0	0	0	0	0	0	0	0	0	4
8	63	4	74	0	0	0	0	0	0	0	0	0	0	0	0	0	0	0	0	4
8	63	4	75	0	0	0	0	0	0	0	0	0	0	0	0	0	0	0	0	4
8	64	4	69	0	0	0	0	0	0	0	0	0	0	0	0	0	0	0	0	4
8	64	4	70	0	0	0	0	0	0	0	0	0	0	0	0	0	0	0	0	4
8	64	4	71	0	0	0	0	0	0	0	0	0	0	0	0	0	0	0	0	4
8	64	4	72	0	0	0	0	0	0	0	0	0	0	0	0	0	0	0	0	4
8	64	4	73	0	0	0	0	0	0	0	0	0	0	0	0	0	0	0	0	4
8	64	4	74	0	0	0	0	0	0	0	0	0	0	0	0	0	0	0	0	4
8	64	4	75	0	0	0	0	0	0	0	0	0	0	0	0	0	0	0	0	4
8	64	4	76	0	0	0	0	0	0	0	0	0	0	0	0	0	0	0	0	4
8	65	4	70	0	0	0	0	0	0	0	0	0	0	0	0	0	0	0	0	4
8	65	4	71	0	0	0	0	0	0	0	0	0	0	0	0	0	0	0	0	4
8	65	4	72	0	0	0	0	0	0	0	0	0	0	0	0	0	0	0	0	4
8	65	4	73	0	0	0	0	0	0	0	0	0	0	0	0	0	0	0	0	4
8	65	4	74	0	0	0	0	0	0	0	0	0	0	0	0	0	0	0	0	4
8	65	4	75	0	0	0	0	0	0	0	0	0	0	0	0	0	0	0	0	4
8	65	4	76	0	0	0	0	0	0	0	0	0	0	0	0	0	0	0	0	4
8	65	4	77	0	0	0	0	0	0	0	0	0	0	0	0	0	0	0	0	4
8	66	4	71	0	0	0	0	0	0	0	0	0	0	0	0	0	0	0	0	4
8	66	4	72	0	0	0	0	0	0	0	0	0	0	0	0	0	0	0	0	4
8	66	4	73	0	0	0	0	0	0	0	0	0	0	0	0	0	0	0	0	4
8	66	4	74	0	0	0	0	0	0	0	0	0	0	0	0	0	0	0	0	4
8	66	4	75	0	0	0	0	0	0	0	0	0	0	0	0	0	0	0	0	4
8	66	4	76	0	0	0	0	0	0	0	0	0	0	0	0	0	0	0	0	4
8	66	4	77	0	0	0	0	0	0	0	0	0	0	0	0	0	0	0	0	4
8	66	4	78	0	0	0	0	0	0	0	0	0	0	0	0	0	0	0	0	4
8	67	4	72	0	0	0	0	0	0	0	0	0	0	0	0	0	0	0	0	4
8	67	4	73	0	0	0	0	0	0	0	0	0	0	0	0	0	0	0	0	4
8	67	4	74	0	0	0	0	0	0	0	0	0	0	0	0	0	0	0	0	4
8	67	4	75	0	0	0	0	0	0	0	0	0	0	0	0	0	0	0	0	4
8	67	4	76	0	0	0	0	0	0	0	0	0	0	0	0	0	0	0	0	4
8	67	4	77	0	0	0	0	0	0	0	0	0	0	0	0	0	0	0	0	4
8	67	4	78	0	0	0	0	0	0	0	0	0	0	0	0	0	0	0	0	4
8	67	4	79	0	0	0	0	0	0	0	0	0	0	0	0	0	0	0	0	4
8	68	4	73	0	0	0	0	0	0	0	0	0	0	0	0	0	0	0	0	4
8	68	4	74	0	0	0	0	0	0	0	0	0	0	0	0	0	0	0	0	4
8	68	4	75	0	0	0	0	0	0	0	0	0	0	0	0	0	0	0	0	4
8	68	4	76	0	0	0	0	0	0	0	0	0	0	0	0	0	0	0	0	4
8	68	4	77	0	0	0	0	0	0	0	0	0	0	0	0	0	0	0	0	4
8	68	4	78	0	0	0	0	0	0	0	0	0	0	0	0	0	0	0	0	4
8	68	4	79	0	0	0	0	0	0	0	0	0	0	0	0	0	0	0	0	4
8	68	4	80	0	0	0	0	0	0	0	0	0	0	0	0	0	0	0	0	4
8	69	4	74	0	0	0	0	0	0	0	0	0	0	0	0	0	0	0	0	4
8	69	4	75	0	0	0	0	0	0	0	0	0	0	0	0	0	0	0	0	4
8	69	4	76	0	0	0	0	0	0	0	0	0	0	0	0	0	0	0	0	4
8	69	4	77	0	0	0	0	0	0	0	0	0	0	0	0	0	0	0	0	4
8	69	4	78	0	0	0	0	0	0	0	0	0	0	0	0	0	0	0	0	4
8	69	4	79	0	0	0	0	0	0	0	0	0	0	0	0	0	0	0	0	4
8	69	4	80	0	0	0	0	0	0	0	0	0	0	0	0	0	0	0	0	4
8	69	4	81	0	0	0	0	0	0	0	0	0	0	0	0	0	0	0	0	4
8	70	4	75	0	0	0	0	0	0	0	0	0	0	0	0	0	0	0	0	4
8	70	4	76	0	0	0	0	0	0	0	0	0	0	0	0	0	0	0	0	4
8	70	4	77	0	0	0	0	0	0	0	0	0	0	0	0	0	0	0	0	4
8	70	4	78	0	0	0	0	0	0	0	0	0	0	0	0	0	0	0	0	4
8	70	4	79	0	0	0	0	0	0	0	0	0	0	0	0	0	0	0	0	4
8	70	4	80	0	0	0	0	0	0	0	0	0	0	0	0	0	0	0	0	4
8	70	4	81	0	0	0	0	0	0	0	0	0	0	0	0	0	0	0	0	4
8	70	4	82	0	0	0	0	0	0	0	0	0	0	0	0	0	0	0	0	4
8	71	4	76	0	0	0	0	0	0	0	0	0	0	0	0	0	0	0	0	4
8	71	4	77	0	0	0	0	0	0	0	0	0	0	0	0	0	0	0	0	4
8	71	4	78	0	0	0	0	0	0	0	0	0	0	0	0	0	0	0	0	4
8	71	4	79	0	0	0	0	0	0	0	0	0	0	0	0	0	0	0	0	4
8	71	4	80	0	0	0	0	0	0	0	0	0	0	0	0	0	0	0	0	4
8	71	4	81	0	0	0	0	0	0	0	0	0	0	0	0	0	0	0	0	4
8	71	4	82	0	0	0	0	0	0	0	0	0	0	0	0	0	0	0	0	4
8	71	4	83	0	0	0	0	0	0	0	0	0	0	0	0	0	0	0	0	4
8	72	4	77	0	0	0	0	0	0	0	0	0	0	0	0	0	0	0	0	4
8	72	4	78	0	0	0	0	0	0	0	0	0	0	0	0	0	0	0	0	4
8	72	4	79	0	0	0	0	0	0	0	0	0	0	0	0	0	0	0	0	4
8	72	4	80	0	0	0	0	0	0	0	0	0	0	0	0	0	0	0	0	4
8	72	4	81	0	0	0	0	0	0	0	0	0	0	0	0	0	0	0	0	4
8	72	4	82	0	0	0	0	0	0	0	0	0	0	0	0	0	0	0	0	4
8	72	4	83	0	0	0	0	0	0	0	0	0	0	0	0	0	0	0	0	4
8	72	4	84	0	0	0	0	0	0	0	0	0	0	0	0	0	0	0	0	4
8	73	4	78	0	0	0	0	0	0	0	0	0	0	0	0	0	0	0	0	4
8	73	4	79	0	0	0	0	0	0	0	0	0	0	0	0	0	0	0	0	4
8	73	4	80	0	0	0	0	0	0	0	0	0	0	0	0	0	0	0	0	4
8	73	4	81	0	0	0	0	0	0	0	0	0	0	0	0	0	0	0	0	4
8	73	4	82	0	0	0	0	0	0	0	0	0	0	0	0	0	0	0	0	4
8	73	4	83	0	0	0	0	0	0	0	0	0	0	0	0	0	0	0	0	4
8	73	4	84	0	0	0	0	0	0	0	0	0	0	0	0	0	0	0	0	4
8	73	4	85	0	0	0	0	0	0	0	0	0	0	0	0	0	0	0	0	4
8	74	4	79	0	0	0	0	0	0	0	0	0	0	0	0	0	0	0	0	4
8	74	4	80	0	0	0	0	0	0	0	0	0	0	0	0	0	0	0	0	4
8	74	4	81	0	0	0	0	0	0	0	0	0	0	0	0	0	0	0	0	4
8	74	4	82	0	0	0	0	0	0	0	0	0	0	0	0	0	0	0	0	4
8	74	4	83	0	0	0	0	0	0	0	0	0	0	0	0	0	0	0	0	4
8	74	4	84	0	0	0	0	0	0	0	0	0	0	0	0	0	0	0	0	4
8	74	4	85	0	0	0	0	0	0	0	0	0	0	0	0	0	0	0	0	4
8	74	4	86	0	0	0	0	0	0	0	0	0	0	0	0	0	0	0	0	4
8	75	4	80	0	0	0	0	0	0	0	0	0	0	0	0	0	0	0	0	4
8	75	4	81	0	0	0	0	0	0	0	0	0	0	0	0	0	0	0	0	4
8	75	4	82	0	0	0	0	0	0	0	0	0	0	0	0	0	0	0	0	4
8	75	4	83	0	0	0	0	0	0	0	0	0	0	0	0	0	0	0	0	4
8	75	4	84	0	0	0	0	0	0	0	0	0	0	0	0	0	0	0	0	4
8	75	4	85	0	0	0	0	0	0	0	0	0	0	0	0	0	0	0	0	4
8	75	4	86	0	0	0	0	0	0	0	0	0	0	0	0	0	0	0	0	4
8	75	4	87	0	0	0	0	0	0	0	0	0	0	0	0	0	0	0	0	4
8	76	4	81	0	0	0	0	0	0	0	0	0	0	0	0	0	0	0	0	4
8	76	4	82	0	0	0	0	0	0	0	0	0	0	0	0	0	0	0	0	4
8	76	4	83	0	0	0	0	0	0	0	0	0	0	0	0	0	0	0	0	4
8	76	4	84	0	0	0	0	0	0	0	0	0	0	0	0	0	0	0	0	4
8	76	4	85	0	0	0	0	0	0	0	0	0	0	0	0	0	0	0	0	4
8	76	4	86	0	0	0	0	0	0	0	0	0	0	0	0	0	0	0	0	4
8	76	4	87	0	0	0	0	0	0	0	0	0	0	0	0	0	0	0	0	4
8	76	4	88	0	0	0	0	0	0	0	0	0	0	0	0	0	0	0	0	4
8	77	4	82	0	0	0	0	0	0	0	0	0	0	0	0	0	0	0	0	4
8	77	4	83	0	0	0	0	0	0	0	0	0	0	0	0	0	0	0	0	4
8	77	4	84	0	0	0	0	0	0	0	0	0	0	0	0	0	0	0	0	4
8	77	4	85	0	0	0	0	0	0	0	0	0	0	0	0	0	0	0	0	4
8	77	4	86	0	0	0	0	0	0	0	0	0	0	0	0	0	0	0	0	4
8	77	4	87	0	0	0	0	0	0	0	0	0	0	0	0	0	0	0	0	4
8	77	4	88	0	0	0	0	0	0	0	0	0	0	0	0	0	0	0	0	4
8	77	4	89	0	0	0	0	0	0	0	0	0	0	0	0	0	0	0	0	4
8	78	4	83	0	0	0	0	0	0	0	0	0	0	0	0	0	0	0	0	4
8	78	4	84	0	0	0	0	0	0	0	0	0	0	0	0	0	0	0	0	4
8	78	4	85	0	0	0	0	0	0	0	0	0	0	0	0	0	0	0	0	4
8	78	4	86	0	0	0	0	0	0	0	0	0	0	0	0	0	0	0	0	4
8	78	4	87	0	0	0	0	0	0	0	0	0	0	0	0	0	0	0	0	4
8	78	4	88	0	0	0	0	0	0	0	0	0	0	0	0	0	0	0	0	4
8	78	4	89	0	0	0	0	0	0	0	0	0	0	0	0	0	0	0	0	4
8	78	4	90	0	0	0	0	0	0	0	0	0	0	0	0	0	0	0	0	4
8	79	4	84	0	0	0	0	0	0	0	0	0	0	0	0	0	0	0	0	4
8	79	4	85	0	0	0	0	0	0	0	0	0	0	0	0	0	0	0	0	4
8	79	4	86	0	0	0	0	0	0	0	0	0	0	0	0	0	0	0	0	4
8	79	4	87	0	0	0	0	0	0	0	0	0	0	0	0	0	0	0	0	4
8	79	4	88	0	0	0	0	0	0	0	0	0	0	0	0	0	0	0	0	4
8	79	4	89	0	0	0	0	0	0	0	0	0	0	0	0	0	0	0	0	4
8	79	4	90	0	0	0	0	0	0	0	0	0	0	0	0	0	0	0	0	4
8	79	4	91	0	0	0	0	0	0	0	0	0	0	0	0	0	0	0	0	4
8	80	4	85	0	0	0	0	0	0	0	0	0	0	0	0	0	0	0	0	4
8	80	4	86	0	0	0	0	0	0	0	0	0	0	0	0	0	0	0	0	4
8	80	4	87	0	0	0	0	0	0	0	0	0	0	0	0	0	0	0	0	4
8	80	4	88	0	0	0	0	0	0	0	0	0	0	0	0	0	0	0	0	4
8	80	4	89	0	0	0	0	0	0	0	0	0	0	0	0	0	0	0	0	4
8	80	4	90	0	0	0	0	0	0	0	0	0	0	0	0	0	0	0	0	4
8	80	4	91	0	0	0	0	0	0	0	0	0	0	0	0	0	0	0	0	4
8	80	4	92	0	0	0	0	0	0	0	0	0	0	0	0	0	0	0	0	4
8	81	4	86	0	0	0	0	0	0	0	0	0	0	0	0	0	0	0	0	4
8	81	4	87	0	0	0	0	0	0	0	0	0	0	0	0	0	0	0	0	4
8	81	4	88	0	0	0	0	0	0	0	0	0	0	0	0	0	0	0	0	4
8	81	4	89	0	0	0	0	0	0	0	0	0	0	0	0	0	0	0	0	4
8	81	4	90	0	0	0	0	0	0	0	0	0	0	0	0	0	0	0	0	4
8	81	4	91	0	0	0	0	0	0	0	0	0	0	0	0	0	0	0	0	4
8	81	4	92	0	0	0	0	0	0	0	0	0	0	0	0	0	0	0	0	4
8	81	4	93	0	0	0	0	0	0	0	0	0	0	0	0	0	0	0	0	4
8	82	4	87	0	0	0	0	0	0	0	0	0	0	0	0	0	0	0	0	4
8	82	4	88	0	0	0	0	0	0	0	0	0	0	0	0	0	0	0	0	4
8	82	4	89	0	0	0	0	0	0	0	0	0	0	0	0	0	0	0	0	4
8	82	4	90	0	0	0	0	0	0	0	0	0	0	0	0	0	0	0	0	4
8	82	4	91	0	0	0	0	0	0	0	0	0	0	0	0	0	0	0	0	4
8	82	4	92	0	0	0	0	0	0	0	0	0	0	0	0	0	0	0	0	4
8	82	4	93	0	0	0	0	0	0	0	0	0	0	0	0	0	0	0	0	4
8	82	4	94	0	0	0	0	0	0	0	0	0	0	0	0	0	0	0	0	4
8	83	4	88	0	0	0	0	0	0	0	0	0	0	0	0	0	0	0	0	4
8	83	4	89	0	0	0	0	0	0	0	0	0	0	0	0	0	0	0	0	4
8	83	4	90	0	0	0	0	0	0	0	0	0	0	0	0	0	0	0	0	4
8	83	4	91	0	0	0	0	0	0	0	0	0	0	0	0	0	0	0	0	4
8	83	4	92	0	0	0	0	0	0	0	0	0	0	0	0	0	0	0	0	4
8	83	4	93	0	0	0	0	0	0	0	0	0	0	0	0	0	0	0	0	4
8	83	4	94	0	0	0	0	0	0	0	0	0	0	0	0	0	0	0	0	4
8	83	4	95	0	0	0	0	0	0	0	0	0	0	0	0	0	0	0	0	4
8	84	4	89	0	0	0	0	0	0	0	0	0	0	0	0	0	0	0	0	4
8	84	4	90	0	0	0	0	0	0	0	0	0	0	0	0	0	0	0	0	4
8	84	4	91	0	0	0	0	0	0	0	0	0	0	0	0	0	0	0	0	4
8	84	4	92	0	0	0	0	0	0	0	0	0	0	0	0	0	0	0	0	4
8	84	4	93	0	0	0	0	0	0	0	0	0	0	0	0	0	0	0	0	4
8	84	4	94	0	0	0	0	0	0	0	0	0	0	0	0	0	0	0	0	4
8	84	4	95	0	0	0	0	0	0	0	0	0	0	0	0	0	0	0	0	4
8	84	4	96	0	0	0	0	0	0	0	0	0	0	0	0	0	0	0	0	4
8	85	4	90	0	0	0	0	0	0	0	0	0	0	0	0	0	0	0	0	4
8	85	4	91	0	0	0	0	0	0	0	0	0	0	0	0	0	0	0	0	4
8	85	4	92	0	0	0	0	0	0	0	0	0	0	0	0	0	0	0	0	4
8	85	4	93	0	0	0	0	0	0	0	0	0	0	0	0	0	0	0	0	4
8	85	4	94	0	0	0	0	0	0	0	0	0	0	0	0	0	0	0	0	4
8	85	4	95	0	0	0	0	0	0	0	0	0	0	0	0	0	0	0	0	4
8	85	4	96	0	0	0	0	0	0	0	0	0	0	0	0	0	0	0	0	4
8	85	4	97	0	0	0	0	0	0	0	0	0	0	0	0	0	0	0	0	4
8	86	4	91	0	0	0	0	0	0	0	0	0	0	0	0	0	0	0	0	4
8	86	4	92	0	0	0	0	0	0	0	0	0	0	0	0	0	0	0	0	4
8	86	4	93	0	0	0	0	0	0	0	0	0	0	0	0	0	0	0	0	4
8	86	4	94	0	0	0	0	0	0	0	0	0	0	0	0	0	0	0	0	4
8	86	4	95	0	0	0	0	0	0	0	0	0	0	0	0	0	0	0	0	4
8	86	4	96	0	0	0	0	0	0	0	0	0	0	0	0	0	0	0	0	4
8	86	4	97	0	0	0	0	0	0	0	0	0	0	0	0	0	0	0	0	4
8	86	4	98	0	0	0	0	0	0	0	0	0	0	0	0	0	0	0	0	4
8	87	4	92	0	0	0	0	0	0	0	0	0	0	0	0	0	0	0	0	4
8	87	4	93	0	0	0	0	0	0	0	0	0	0	0	0	0	0	0	0	4
8	87	4	94	0	0	0	0	0	0	0	0	0	0	0	0	0	0	0	0	4
8	87	4	95	0	0	0	0	0	0	0	0	0	0	0	0	0	0	0	0	4
8	87	4	96	0	0	0	0	0	0	0	0	0	0	0	0	0	0	0	0	4
8	87	4	97	0	0	0	0	0	0	0	0	0	0	0	0	0	0	0	0	4
8	87	4	98	0	0	0	0	0	0	0	0	0	0	0	0	0	0	0	0	4
8	87	4	99	0	0	0	0	0	0	0	0	0	0	0	0	0	0	0	0	4
8	88	4	93	0	0	0	0	0	0	0	0	0	0	0	0	0	0	0	0	4
8	88	4	94	0	0	0	0	0	0	0	0	0	0	0	0	0	0	0	0	4
8	88	4	95	0	0	0	0	0	0	0	0	0	0	0	0	0	0	0	0	4
8	88	4	96	0	0	0	0	0	0	0	0	0	0	0	0	0	0	0	0	4
8	88	4	97	0	0	0	0	0	0	0	0	0	0	0	0	0	0	0	0	4
8	88	4	98	0	0	0	0	0	0	0	0	0	0	0	0	0	0	0	0	4
8	88	4	99	0	0	0	0	0	0	0	0	0	0	0	0	0	0	0	0	4
8	88	4	100	0	0	0	0	0	0	0	0	0	0	0	0	0	0	0	0	4
8	89	4	94	0	0	0	0	0	0	0	0	0	0	0	0	0	0	0	0	4
8	89	4	95	0	0	0	0	0	0	0	0	0	0	0	0	0	0	0	0	4
8	89	4	96	0	0	0	0	0	0	0	0	0	0	0	0	0	0	0	0	4
8	89	4	97	0	0	0	0	0	0	0	0	0	0	0	0	0	0	0	0	4
8	89	4	98	0	0	0	0	0	0	0	0	0	0	0	0	0	0	0	0	4
8	89	4	99	0	0	0	0	0	0	0	0	0	0	0	0	0	0	0	0	4
8	89	4	100	0	0	0	0	0	0	0	0	0	0	0	0	0	0	0	0	4
8	89	4	101	0	0	0	0	0	0	0	0	0	0	0	0	0	0	0	0	4
8	90	4	95	0	0	0	0	0	0	0	0	0	0	0	0	0	0	0	0	4
8	90	4	96	0	0	0	0	0	0	0	0	0	0	0	0	0	0	0	0	4
8	90	4	97	0	0	0	0	0	0	0	0	0	0	0	0	0	0	0	0	4
8	90	4	98	0	0	0	0	0	0	0	0	0	0	0	0	0	0	0	0	4
8	90	4	99	0	0	0	0	0	0	0	0	0	0	0	0	0	0	0	0	4
8	90	4	100	0	0	0	0	0	0	0	0	0	0	0	0	0	0	0	0	4
8	90	4	101	0	0	0	0	0	0	0	0	0	0	0	0	0	0	0	0	4
8	90	4	102	0	0	0	0	0	0	0	0	0	0	0	0	0	0	0	0	4
8	91	4	96	0	0	0	0	0	0	0	0	0	0	0	0	0	0	0	0	4
8	91	4	97	0	0	0	0	0	0	0	0	0	0	0	0	0	0	0	0	4
8	91	4	98	0	0	0	0	0	0	0	0	0	0	0	0	0	0	0	0	4
8	91	4	99	0	0	0	0	0	0	0	0	0	0	0	0	0	0	0	0	4
8	91	4	100	0	0	0	0	0	0	0	0	0	0	0	0	0	0	0	0	4
8	91	4	101	0	0	0	0	0	0	0	0	0	0	0	0	0	0	0	0	4
8	91	4	102	0	0	0	0	0	0	0	0	0	0	0	0	0	0	0	0	4
8	91	4	103	0	0	0	0	0	0	0	0	0	0	0	0	0	0	0	0	4
8	92	4	97	0	0	0	0	0	0	0	0	0	0	0	0	0	0	0	0	4
8	92	4	98	0	0	0	0	0	0	0	0	0	0	0	0	0	0	0	0	4
8	92	4	99	0	0	0	0	0	0	0	0	0	0	0	0	0	0	0	0	4
8	92	4	100	0	0	0	0	0	0	0	0	0	0	0	0	0	0	0	0	4
8	92	4	101	0	0	0	0	0	0	0	0	0	0	0	0	0	0	0	0	4
8	92	4	102	0	0	0	0	0	0	0	0	0	0	0	0	0	0	0	0	4
8	92	4	103	0	0	0	0	0	0	0	0	0	0	0	0	0	0	0	0	4
8	92	4	104	0	0	0	0	0	0	0	0	0	0	0	0	0	0	0	0	4
8	93	4	98	0	0	0	0	0	0	0	0	0	0	0	0	0	0	0	0	4
8	93	4	99	0	0	0	0	0	0	0	0	0	0	0	0	0	0	0	0	4
8	93	4	100	0	0	0	0	0	0	0	0	0	0	0	0	0	0	0	0	4
8	93	4	101	0	0	0	0	0	0	0	0	0	0	0	0	0	0	0	0	4
8	93	4	102	0	0	0	0	0	0	0	0	0	0	0	0	0	0	0	0	4
8	93	4	103	0	0	0	0	0	0	0	0	0	0	0	0	0	0	0	0	4
8	93	4	104	0	0	0	0	0	0	0	0	0	0	0	0	0	0	0	0	4
8	93	4	105	0	0	0	0	0	0	0	0	0	0	0	0	0	0	0	0	4
8	94	4	99	0	0	0	0	0	0	0	0	0	0	0	0	0	0	0	0	4
8	94	4	100	0	0	0	0	0	0	0	0	0	0	0	0	0	0	0	0	4
8	94	4	101	0	0	0	0	0	0	0	0	0	0	0	0	0	0	0	0	4
8	94	4	102	0	0	0	0	0	0	0	0	0	0	0	0	0	0	0	0	4
8	94	4	103	0	0	0	0	0	0	0	0	0	0	0	0	0	0	0	0	4
8	94	4	104	0	0	0	0	0	0	0	0	0	0	0	0	0	0	0	0	4
8	94	4	105	0	0	0	0	0	0	0	0	0	0	0	0	0	0	0	0	4
8	94	4	106	0	0	0	0	0	0	0	0	0	0	0	0	0	0	0	0	4
8	95	4	100	0	0	0	0	0	0	0	0	0	0	0	0	0	0	0	0	4
8	95	4	101	0	0	0	0	0	0	0	0	0	0	0	0	0	0	0	0	4
8	95	4	102	0	0	0	0	0	0	0	0	0	0	0	0	0	0	0	0	4
8	95	4	103	0	0	0	0	0	0	0	0	0	0	0	0	0	0	0	0	4
8	95	4	104	0	0	0	0	0	0	0	0	0	0	0	0	0	0	0	0	4
8	95	4	105	0	0	0	0	0	0	0	0	0	0	0	0	0	0	0	0	4
8	95	4	106	0	0	0	0	0	0	0	0	0	0	0	0	0	0	0	0	4
8	95	4	107	0	0	0	0	0	0	0	0	0	0	0	0	0	0	0	0	4
8	96	4	101	0	0	0	0	0	0	0	0	0	0	0	0	0	0	0	0	4
8	96	4	102	0	0	0	0	0	0	0	0	0	0	0	0	0	0	0	0	4
8	96	4	103	0	0	0	0	0	0	0	0	0	0	0	0	0	0	0	0	4
8	96	4	104	0	0	0	0	0	0	0	0	0	0	0	0	0	0	0	0	4
8	96	4	105	0	0	0	0	0	0	0	0	0	0	0	0	0	0	0	0	4
8	96	4	106	0	0	0	0	0	0	0	0	0	0	0	0	0	0	0	0	4
8	96	4	107	0	0	0	0	0	0	0	0	0	0	0	0	0	0	0	0	4
8	96	4	108	0	0	0	0	0	0	0	0	0	0	0	0	0	0	0	0	4
8	97	4	102	0	0	0	0	0	0	0	0	0	0	0	0	0	0	0	0	4
8	97	4	103	0	0	0	0	0	0	0	0	0	0	0	0	0	0	0	0	4
8	97	4	104	0	0	0	0	0	0	0	0	0	0	0	0	0	0	0	0	4
8	97	4	105	0	0	0	0	0	0	0	0	0	0	0	0	0	0	0	0	4
8	97	4	106	0	0	0	0	0	0	0	0	0	0	0	0	0	0	0	0	4
8	97	4	107	0	0	0	0	0	0	0	0	0	0	0	0	0	0	0	0	4
8	97	4	108	0	0	0	0	0	0	0	0	0	0	0	0	0	0	0	0	4
8	97	4	109	0	0	0	0	0	0	0	0	0	0	0	0	0	0	0	0	4
8	98	4	103	0	0	0	0	0	0	0	0	0	0	0	0	0	0	0	0	4
8	98	4	104	0	0	0	0	0	0	0	0	0	0	0	0	0	0	0	0	4
8	98	4	105	0	0	0	0	0	0	0	0	0	0	0	0	0	0	0	0	4
8	98	4	106	0	0	0	0	0	0	0	0	0	0	0	0	0	0	0	0	4
8	98	4	107	0	0	0	0	0	0	0	0	0	0	0	0	0	0	0	0	4
8	98	4	108	0	0	0	0	0	0	0	0	0	0	0	0	0	0	0	0	4
8	98	4	109	0	0	0	0	0	0	0	0	0	0	0	0	0	0	0	0	4
8	98	4	110	0	0	0	0	0	0	0	0	0	0	0	0	0	0	0	0	4
8	99	4	104	0	0	0	0	0	0	0	0	0	0	0	0	0	0	0	0	4
8	99	4	105	0	0	0	0	0	0	0	0	0	0	0	0	0	0	0	0	4
8	99	4	106	0	0	0	0	0	0	0	0	0	0	0	0	0	0	0	0	4
8	99	4	107	0	0	0	0	0	0	0	0	0	0	0	0	0	0	0	0	4
8	99	4	108	0	0	0	0	0	0	0	0	0	0	0	0	0	0	0	0	4
8	99	4	109	0	0	0	0	0	0	0	0	0	0	0	0	0	0	0	0	4
8	99	4	110	0	0	0	0	0	0	0	0	0	0	0	0	0	0	0	0	4
8	99	4	111	0	0	0	0	0	0	0	0	0	0	0	0	0	0	0	0	4
8	100	4	105	0	0	0	0	0	0	0	0	0	0	0	0	0	0	0	0	4
8	100	4	106	0	0	0	0	0	0	0	0	0	0	0	0	0	0	0	0	4
8	100	4	107	0	0	0	0	0	0	0	0	0	0	0	0	0	0	0	0	4
8	100	4	108	0	0	0	0	0	0	0	0	0	0	0	0	0	0	0	0	4
8	100	4	109	0	0	0	0	0	0	0	0	0	0	0	0	0	0	0	0	4
8	100	4	110	0	0	0	0	0	0	0	0	0	0	0	0	0	0	0	0	4
8	100	4	111	0	0	0	0	0	0	0	0	0	0	0	0	0	0	0	0	4
8	100	4	112	0	0	0	0	0	0	0	0	0	0	0	0	0	0	0	0	4
8	101	4	106	0	0	0	0	0	0	0	0	0	0	0	0	0	0	0	0	4
8	101	4	107	0	0	0	0	0	0	0	0	0	0	0	0	0	0	0	0	4
8	101	4	108	0	0	0	0	0	0	0	0	0	0	0	0	0	0	0	0	4
8	101	4	109	0	0	0	0	0	0	0	0	0	0	0	0	0	0	0	0	4
8	101	4	110	0	0	0	0	0	0	0	0	0	0	0	0	0	0	0	0	4
8	101	4	111	0	0	0	0	0	0	0	0	0	0	0	0	0	0	0	0	4
8	101	4	112	0	0	0	0	0	0	0	0	0	0	0	0	0	0	0	0	4
8	101	4	113	0	0	0	0	0	0	0	0	0	0	0	0	0	0	0	0	4
8	102	4	107	0	0	0	0	0	0	0	0	0	0	0	0	0	0	0	0	4
8	102	4	108	0	0	0	0	0	0	0	0	0	0	0	0	0	0	0	0	4
8	102	4	109	0	0	0	0	0	0	0	0	0	0	0	0	0	0	0	0	4
8	102	4	110	0	0	0	0	0	0	0	0	0	0	0	0	0	0	0	0	4
8	102	4	111	0	0	0	0	0	0	0	0	0	0	0	0	0	0	0	0	4
8	102	4	112	0	0	0	0	0	0	0	0	0	0	0	0	0	0	0	0	4
8	102	4	113	0	0	0	0	0	0	0	0	0	0	0	0	0	0	0	0	4
8	102	4	114	0	0	0	0	0	0	0	0	0	0	0	0	0	0	0	0	4
8	103	4	108	0	0	0	0	0	0	0	0	0	0	0	0	0	0	0	0	4
8	103	4	109	0	0	0	0	0	0	0	0	0	0	0	0	0	0	0	0	4
8	103	4	110	0	0	0	0	0	0	0	0	0	0	0	0	0	0	0	0	4
8	103	4	111	0	0	0	0	0	0	0	0	0	0	0	0	0	0	0	0	4
8	103	4	112	0	0	0	0	0	0	0	0	0	0	0	0	0	0	0	0	4
8	103	4	113	0	0	0	0	0	0	0	0	0	0	0	0	0	0	0	0	4
8	103	4	114	0	0	0	0	0	0	0	0	0	0	0	0	0	0	0	0	4
8	103	4	115	0	0	0	0	0	0	0	0	0	0	0	0	0	0	0	0	4
8	104	4	109	0	0	0	0	0	0	0	0	0	0	0	0	0	0	0	0	4
8	104	4	110	0	0	0	0	0	0	0	0	0	0	0	0	0	0	0	0	4
8	104	4	111	0	0	0	0	0	0	0	0	0	0	0	0	0	0	0	0	4
8	104	4	112	0	0	0	0	0	0	0	0	0	0	0	0	0	0	0	0	4
8	104	4	113	0	0	0	0	0	0	0	0	0	0	0	0	0	0	0	0	4
8	104	4	114	0	0	0	0	0	0	0	0	0	0	0	0	0	0	0	0	4
8	104	4	115	0	0	0	0	0	0	0	0	0	0	0	0	0	0	0	0	4
8	104	4	116	0	0	0	0	0	0	0	0	0	0	0	0	0	0	0	0	4
8	105	4	110	0	0	0	0	0	0	0	0	0	0	0	0	0	0	0	0	4
8	105	4	111	0	0	0	0	0	0	0	0	0	0	0	0	0	0	0	0	4
8	105	4	112	0	0	0	0	0	0	0	0	0	0	0	0	0	0	0	0	4
8	105	4	113	0	0	0	0	0	0	0	0	0	0	0	0	0	0	0	0	4
8	105	4	114	0	0	0	0	0	0	0	0	0	0	0	0	0	0	0	0	4
8	105	4	115	0	0	0	0	0	0	0	0	0	0	0	0	0	0	0	0	4
8	105	4	116	0	0	0	0	0	0	0	0	0	0	0	0	0	0	0	0	4
8	105	4	117	0	0	0	0	0	0	0	0	0	0	0	0	0	0	0	0	4
8	106	4	111	0	0	0	0	0	0	0	0	0	0	0	0	0	0	0	0	4
8	106	4	112	0	0	0	0	0	0	0	0	0	0	0	0	0	0	0	0	4
8	106	4	113	0	0	0	0	0	0	0	0	0	0	0	0	0	0	0	0	4
8	106	4	114	0	0	0	0	0	0	0	0	0	0	0	0	0	0	0	0	4
8	106	4	115	0	0	0	0	0	0	0	0	0	0	0	0	0	0	0	0	4
8	106	4	116	0	0	0	0	0	0	0	0	0	0	0	0	0	0	0	0	4
8	106	4	117	0	0	0	0	0	0	0	0	0	0	0	0	0	0	0	0	4
8	106	4	118	0	0	0	0	0	0	0	0	0	0	0	0	0	0	0	0	4
8	107	4	112	0	0	0	0	0	0	0	0	0	0	0	0	0	0	0	0	4
8	107	4	113	0	0	0	0	0	0	0	0	0	0	0	0	0	0	0	0	4
8	107	4	114	0	0	0	0	0	0	0	0	0	0	0	0	0	0	0	0	4
8	107	4	115	0	0	0	0	0	0	0	0	0	0	0	0	0	0	0	0	4
8	107	4	116	0	0	0	0	0	0	0	0	0	0	0	0	0	0	0	0	4
8	107	4	117	0	0	0	0	0	0	0	0	0	0	0	0	0	0	0	0	4
8	107	4	118	0	0	0	0	0	0	0	0	0	0	0	0	0	0	0	0	4
8	107	4	119	0	0	0	0	0	0	0	0	0	0	0	0	0	0	0	0	4
8	108	4	113	0	0	0	0	0	0	0	0	0	0	0	0	0	0	0	0	4
8	108	4	114	0	0	0	0	0	0	0	0	0	0	0	0	0	0	0	0	4
8	108	4	115	0	0	0	0	0	0	0	0	0	0	0	0	0	0	0	0	4
8	108	4	116	0	0	0	0	0	0	0	0	0	0	0	0	0	0	0	0	4
8	108	4	117	0	0	0	0	0	0	0	0	0	0	0	0	0	0	0	0	4
8	108	4	118	0	0	0	0	0	0	0	0	0	0	0	0	0	0	0	0	4
8	108	4	119	0	0	0	0	0	0	0	0	0	0	0	0	0	0	0	0	4
8	108	4	120	0	0	0	0	0	0	0	0	0	0	0	0	0	0	0	0	4
8	109	4	114	0	0	0	0	0	0	0	0	0	0	0	0	0	0	0	0	4
8	109	4	115	0	0	0	0	0	0	0	0	0	0	0	0	0	0	0	0	4
8	109	4	116	0	0	0	0	0	0	0	0	0	0	0	0	0	0	0	0	4
8	109	4	117	0	0	0	0	0	0	0	0	0	0	0	0	0	0	0	0	4
8	109	4	118	0	0	0	0	0	0	0	0	0	0	0	0	0	0	0	0	4
8	109	4	119	0	0	0	0	0	0	0	0	0	0	0	0	0	0	0	0	4
8	109	4	120	0	0	0	0	0	0	0	0	0	0	0	0	0	0	0	0	4
8	110	4	115	0	0	0	0	0	0	0	0	0	0	0	0	0	0	0	0	4
8	110	4	116	0	0	0	0	0	0	0	0	0	0	0	0	0	0	0	0	4
8	110	4	117	0	0	0	0	0	0	0	0	0	0	0	0	0	0	0	0	4
8	110	4	118	0	0	0	0	0	0	0	0	0	0	0	0	0	0	0	0	4
8	110	4	119	0	0	0	0	0	0	0	0	0	0	0	0	0	0	0	0	4
8	110	4	120	0	0	0	0	0	0	0	0	0	0	0	0	0	0	0	0	4
8	111	4	116	0	0	0	0	0	0	0	0	0	0	0	0	0	0	0	0	4
8	111	4	117	0	0	0	0	0	0	0	0	0	0	0	0	0	0	0	0	4
8	111	4	118	0	0	0	0	0	0	0	0	0	0	0	0	0	0	0	0	4
8	111	4	119	0	0	0	0	0	0	0	0	0	0	0	0	0	0	0	0	4
8	111	4	120	0	0	0	0	0	0	0	0	0	0	0	0	0	0	0	0	4
8	112	4	117	0	0	0	0	0	0	0	0	0	0	0	0	0	0	0	0	4
8	112	4	118	0	0	0	0	0	0	0	0	0	0	0	0	0	0	0	0	4
8	112	4	119	0	0	0	0	0	0	0	0	0	0	0	0	0	0	0	0	4
8	112	4	120	0	0	0	0	0	0	0	0	0	0	0	0	0	0	0	0	4
8	113	4	118	0	0	0	0	0	0	0	0	0	0	0	0	0	0	0	0	4
8	113	4	119	0	0	0	0	0	0	0	0	0	0	0	0	0	0	0	0	4
8	113	4	120	0	0	0	0	0	0	0	0	0	0	0	0	0	0	0	0	4
8	114	4	119	0	0	0	0	0	0	0	0	0	0	0	0	0	0	0	0	4
8	114	4	120	0	0	0	0	0	0	0	0	0	0	0	0	0	0	0	0	4
8	115	4	120	0	0	0	0	0	0	0	0	0	0	0	0	0	0	0	0	4